c description: Random 3-CNF over 18 variables and 4 clauses
c generator: CNFgen (0.9.0)
c copyright: (C) 2012-2020 Massimo Lauria <massimo.lauria@uniroma1.it>
c url: https://massimolauria.net/cnfgen
c
p cnf 18 4
-2 -5 17 0
-3 -10 -18 0
3 10 12 0
-5 13 18 0